(set-logic QF_LIA)
(declare-fun x0 () Int)
(declare-fun x1 () Int)
(declare-fun x2 () Int)
(declare-fun x3 () Int)
(declare-fun x4 () Int)
(declare-fun x5 () Int)
(declare-fun x6 () Int)
(declare-fun x7 () Int)
(declare-fun x8 () Int)
(declare-fun x9 () Int)
(declare-fun A0 () Bool)
(declare-fun A1 () Bool)
(declare-fun A2 () Bool)
(declare-fun A3 () Bool)
(declare-fun A4 () Bool)
(declare-fun A5 () Bool)
(declare-fun A6 () Bool)
(declare-fun A7 () Bool)
(declare-fun A8 () Bool)
(declare-fun A9 () Bool)
(assert (let ((.def_0 (* (- 1) x6))) (let ((.def_1 (< .def_0 (- 1)))) (let ((.def_2 (* (- 1) x8))) (let ((.def_3 (< .def_2 (- 1)))) (let ((.def_4 (= .def_3 .def_1))) (let ((.def_5 (not A9))) (let ((.def_6 (* (- 1) x7))) (let ((.def_7 (< .def_6 1))) (let ((.def_8 (or .def_7 .def_5))) (let ((.def_9 (not .def_8))) (let ((.def_10 (and .def_9 .def_4))) (let ((.def_11 (not .def_10))) (let ((.def_12 (* 1 x1))) (let ((.def_13 (* (- 1) x5))) (let ((.def_14 (+ .def_13 .def_12))) (let ((.def_15 (< .def_14 1))) (let ((.def_16 (not .def_15))) (let ((.def_17 (* 1 x3))) (let ((.def_18 (* 1 x2))) (let ((.def_19 (+ .def_18 .def_17))) (let ((.def_20 (< .def_19 1))) (let ((.def_21 (and .def_20 .def_16))) (let ((.def_22 (not A0))) (let ((.def_23 (not A4))) (let ((.def_24 (or .def_23 .def_22))) (let ((.def_25 (and .def_24 .def_21))) (let ((.def_26 (not .def_25))) (let ((.def_27 (or .def_26 .def_11))) (let ((.def_28 (not .def_27))) (let ((.def_29 (not A7))) (let ((.def_30 (not A1))) (let ((.def_31 (or .def_30 .def_29))) (let ((.def_32 (not .def_31))) (let ((.def_33 (and A0 A3))) (let ((.def_34 (not .def_33))) (let ((.def_35 (and .def_34 .def_32))) (let ((.def_36 (not .def_35))) (let ((.def_37 (not A2))) (let ((.def_38 (or .def_37 A6))) (let ((.def_39 (not .def_38))) (let ((.def_40 (* 1 x8))) (let ((.def_41 (* (- 1) x1))) (let ((.def_42 (+ .def_41 .def_40))) (let ((.def_43 (< .def_42 1))) (let ((.def_44 (* (- 1) x3))) (let ((.def_45 (< .def_44 (- 1)))) (let ((.def_46 (or .def_45 .def_43))) (let ((.def_47 (not .def_46))) (let ((.def_48 (or .def_47 .def_39))) (let ((.def_49 (or .def_48 .def_36))) (let ((.def_50 (and .def_49 .def_28))) (let ((.def_51 (< .def_17 1))) (let ((.def_52 (and .def_1 .def_51))) (let ((.def_53 (not .def_52))) (let ((.def_54 (* (- 1) x2))) (let ((.def_55 (< .def_54 1))) (let ((.def_56 (or .def_55 .def_29))) (let ((.def_57 (not .def_56))) (let ((.def_58 (or .def_57 .def_53))) (let ((.def_59 (not .def_3))) (let ((.def_60 (< .def_18 1))) (let ((.def_61 (or .def_60 .def_59))) (let ((.def_62 (* (- 1) x4))) (let ((.def_63 (< .def_62 1))) (let ((.def_64 (= .def_63 A6))) (let ((.def_65 (not .def_64))) (let ((.def_66 (= .def_65 .def_61))) (let ((.def_67 (= .def_66 .def_58))) (let ((.def_68 (+ .def_54 .def_44))) (let ((.def_69 (< .def_68 1))) (let ((.def_70 (not .def_69))) (let ((.def_71 (or .def_70 .def_22))) (let ((.def_72 (+ .def_54 .def_40))) (let ((.def_73 (< .def_72 1))) (let ((.def_74 (not .def_73))) (let ((.def_75 (* 1 x9))) (let ((.def_76 (* 1 x7))) (let ((.def_77 (+ .def_76 .def_75))) (let ((.def_78 (< .def_77 (- 1)))) (let ((.def_79 (not .def_78))) (let ((.def_80 (or .def_79 .def_74))) (let ((.def_81 (or .def_80 .def_71))) (let ((.def_82 (not .def_81))) (let ((.def_83 (< .def_40 1))) (let ((.def_84 (not .def_83))) (let ((.def_85 (and .def_84 A3))) (let ((.def_86 (not A6))) (let ((.def_87 (or A9 .def_86))) (let ((.def_88 (not .def_87))) (let ((.def_89 (= .def_88 .def_85))) (let ((.def_90 (not .def_89))) (let ((.def_91 (and .def_90 .def_82))) (let ((.def_92 (not .def_91))) (let ((.def_93 (and .def_92 .def_67))) (let ((.def_94 (not .def_93))) (let ((.def_95 (= .def_94 .def_50))) (let ((.def_96 (+ .def_0 .def_12))) (let ((.def_97 (< .def_96 (- 1)))) (let ((.def_98 (not .def_97))) (let ((.def_99 (+ .def_17 .def_54))) (let ((.def_100 (< .def_99 1))) (let ((.def_101 (not .def_100))) (let ((.def_102 (or .def_101 .def_98))) (let ((.def_103 (not .def_1))) (let ((.def_104 (* (- 1) x9))) (let ((.def_105 (< .def_104 (- 1)))) (let ((.def_106 (and .def_105 .def_103))) (let ((.def_107 (not .def_106))) (let ((.def_108 (and .def_107 .def_102))) (let ((.def_109 (not .def_108))) (let ((.def_110 (* 1 x6))) (let ((.def_111 (+ .def_104 .def_110))) (let ((.def_112 (< .def_111 (- 1)))) (let ((.def_113 (and .def_112 .def_86))) (let ((.def_114 (not .def_113))) (let ((.def_115 (* (- 1) x0))) (let ((.def_116 (+ .def_0 .def_115))) (let ((.def_117 (< .def_116 1))) (let ((.def_118 (not .def_117))) (let ((.def_119 (and A5 .def_118))) (let ((.def_120 (not .def_119))) (let ((.def_121 (and .def_120 .def_114))) (let ((.def_122 (not .def_121))) (let ((.def_123 (or .def_122 .def_109))) (let ((.def_124 (* 1 x4))) (let ((.def_125 (< .def_124 (- 1)))) (let ((.def_126 (not .def_125))) (let ((.def_127 (= A9 .def_126))) (let ((.def_128 (not .def_127))) (let ((.def_129 (and A4 .def_30))) (let ((.def_130 (or .def_129 .def_128))) (let ((.def_131 (< .def_76 1))) (let ((.def_132 (not .def_131))) (let ((.def_133 (or A7 .def_132))) (let ((.def_134 (not .def_133))) (let ((.def_135 (+ .def_75 .def_44))) (let ((.def_136 (< .def_135 (- 1)))) (let ((.def_137 (and A2 .def_136))) (let ((.def_138 (not .def_137))) (let ((.def_139 (or .def_138 .def_134))) (let ((.def_140 (and .def_139 .def_130))) (let ((.def_141 (not .def_140))) (let ((.def_142 (or .def_141 .def_123))) (let ((.def_143 (not .def_142))) (let ((.def_144 (< .def_0 1))) (let ((.def_145 (not .def_144))) (let ((.def_146 (or .def_145 .def_30))) (let ((.def_147 (or A6 A6))) (let ((.def_148 (or .def_147 .def_146))) (let ((.def_149 (not .def_148))) (let ((.def_150 (* 1 x5))) (let ((.def_151 (+ .def_150 .def_41))) (let ((.def_152 (< .def_151 (- 1)))) (let ((.def_153 (and .def_152 .def_29))) (let ((.def_154 (not .def_153))) (let ((.def_155 (< .def_104 1))) (let ((.def_156 (+ .def_54 .def_12))) (let ((.def_157 (< .def_156 1))) (let ((.def_158 (and .def_157 .def_155))) (let ((.def_159 (or .def_158 .def_154))) (let ((.def_160 (and .def_159 .def_149))) (let ((.def_161 (and .def_59 A8))) (let ((.def_162 (not .def_161))) (let ((.def_163 (and .def_23 .def_22))) (let ((.def_164 (or .def_163 .def_162))) (let ((.def_165 (not A8))) (let ((.def_166 (and .def_165 .def_37))) (let ((.def_167 (not .def_166))) (let ((.def_168 (or A0 .def_43))) (let ((.def_169 (not .def_168))) (let ((.def_170 (or .def_169 .def_167))) (let ((.def_171 (not .def_170))) (let ((.def_172 (and .def_171 .def_164))) (let ((.def_173 (or .def_172 .def_160))) (let ((.def_174 (or .def_173 .def_143))) (let ((.def_175 (not .def_174))) (let ((.def_176 (or .def_175 .def_95))) (let ((.def_177 (not .def_176))) (let ((.def_178 (<= x9 1))) (let ((.def_179 (<= 0 x9))) (let ((.def_180 (<= x8 1))) (let ((.def_181 (<= 0 x8))) (let ((.def_182 (<= x7 1))) (let ((.def_183 (<= 0 x7))) (let ((.def_184 (<= x6 1))) (let ((.def_185 (<= 0 x6))) (let ((.def_186 (<= x5 1))) (let ((.def_187 (<= 0 x5))) (let ((.def_188 (<= x4 1))) (let ((.def_189 (<= 0 x4))) (let ((.def_190 (<= x3 1))) (let ((.def_191 (<= 0 x3))) (let ((.def_192 (<= x2 1))) (let ((.def_193 (<= 0 x2))) (let ((.def_194 (<= x1 1))) (let ((.def_195 (<= 0 x1))) (let ((.def_196 (<= x0 1))) (let ((.def_197 (<= 0 x0))) (let ((.def_198 (and .def_197 .def_196 .def_195 .def_194 .def_193 .def_192 .def_191 .def_190 .def_189 .def_188 .def_187 .def_186 .def_185 .def_184 .def_183 .def_182 .def_181 .def_180 .def_179 .def_178 .def_177))) .def_198))))))))))))))))))))))))))))))))))))))))))))))))))))))))))))))))))))))))))))))))))))))))))))))))))))))))))))))))))))))))))))))))))))))))))))))))))))))))))))))))))))))))))))))))))))))))))))))))))))))))
(check-sat)
